solution status: optimal solution found
objective value:                                    0
one.pinholes[3].hole_in_b_y                        -3 	(obj:0)
one.pinholes[3].hole_in_b_z                        -5 	(obj:0)
one.pinholes[3].hole_in_c_y                        -2 	(obj:0)
one.pinholes[3].hole_in_c_z                        -6 	(obj:0)
one.pinholes[0].hole_in_b_z                        -3 	(obj:0)
one.pinholes[0].hole_in_c_y                        -1 	(obj:0)
one.pinholes[0].hole_in_c_z                        -3 	(obj:0)
one.pinholes[2].hole_in_c_y                        -2 	(obj:0)
one.pinholes[2].hole_in_c_z                        -5 	(obj:0)
one.pinholes[0].hole_in_a_y                        -2 	(obj:0)
one.pinholes[0].hole_in_a_z                        -2 	(obj:0)
one.pinholes[1].hole_in_c_y                        -1 	(obj:0)
one.pinholes[1].hole_in_c_z                        -4 	(obj:0)
one.pinholes[1].hole_in_b_y                        -2 	(obj:0)
one.pinholes[1].hole_in_b_z                        -4 	(obj:0)
one.pinholes[2].hole_in_a_y                        -3 	(obj:0)
one.pinholes[2].hole_in_a_z                        -4 	(obj:0)
one.pinholes[2].hole_in_b_y                        -3 	(obj:0)
one.pinholes[2].hole_in_b_z                        -3 	(obj:0)
one.pinholes[1].hole_in_a_y                        -2 	(obj:0)
one.pinholes[1].hole_in_a_z                        -3 	(obj:0)
one.pinholes[3].hole_in_a_y                        -3 	(obj:0)
one.pinholes[3].hole_in_a_z                        -7 	(obj:0)
